import DataTypes.dzn;
import ISafetyCheck.dzn;
import Resolver.dzn;

interface IAccelerationSensor {
	in void retrieve_ke_from_acc();
	
	behaviour {
		on retrieve_ke_from_acc: {}
	}
}

component AccelerationCheck {
	requires IAccelerationSensor iAccelerationSensor;
	provides ISafetyCheck iAccelerationCheck;
	requires ISafetyCheck iNext;
	requires injected IResolver iResolver;

	behaviour {
		// Function to boolean and current and next safety state.
		// If either current or next is Unsafe we return Unsafe.
		Behavior and_safety_states(Behavior current, Behavior next) {
			if(current == Behavior.Unsafe || next == Behavior.Unsafe) {
				return Behavior.Unsafe;
			}
			return Behavior.Safe;
		}
		
		on iAccelerationCheck.do_check(): {
			Behavior currSafetyState = Behavior.Safe;
			// TODO: Let the data go through the retriever here.
			iAccelerationSensor.retrieve_ke_from_acc();
			currSafetyState = iResolver.resolve_ke_from_acc();
			
			Behavior nextSafetyState = iNext.do_check();
			Behavior res = and_safety_states(currSafetyState, nextSafetyState); 
			reply(res);
		}
	}
}
